
Gurobi 11.0.3 (linux64) logging started Tue 19 Nov 2024 12:24:56 AM CST

Set parameter LogFile to value "/home/dlcole3/graph_abstraction/hierarchical_graphs/git_storage/CS1/HP_low_reserves/gurobi_logs/serial/logfile_ST25_5.log"

Gurobi 11.0.3 (linux64) logging started Tue 19 Nov 2024 12:27:48 AM CST

Set parameter LogFile to value "/home/dlcole3/graph_abstraction/hierarchical_graphs/git_storage/CS1/HP_low_reserves/gurobi_logs/serial/logfile_ST25_5.log"
Gurobi Optimizer version 11.0.3 build v11.0.3rc0 (linux64 - "Ubuntu 18.04.3 LTS")

CPU model: Intel(R) Xeon(R) CPU E5-2698 v4 @ 2.20GHz, instruction set [SSE2|AVX|AVX2]
Thread count: 40 physical cores, 80 logical processors, using up to 20 threads

Optimize a model with 29168 rows, 50688 columns and 136175 nonzeros
Model fingerprint: 0xd874d50e
Variable types: 46944 continuous, 3744 integer (3744 binary)
Coefficient statistics:
  Matrix range     [6e-01, 2e+04]
  Objective range  [2e+00, 2e+04]
  Bounds range     [5e-02, 2e+05]
  RHS range        [8e-03, 7e+03]
Presolve removed 14746 rows and 39110 columns
Presolve time: 0.35s
Presolved: 14422 rows, 11578 columns, 62199 nonzeros
Variable types: 8504 continuous, 3074 integer (3074 binary)
Found heuristic solution: objective 6666047.4745
Found heuristic solution: objective 5829697.8382
Found heuristic solution: objective 5446097.4737

Root relaxation: objective 1.760020e+05, 8329 iterations, 0.45 seconds (0.36 work units)

    Nodes    |    Current Node    |     Objective Bounds      |     Work
 Expl Unexpl |  Obj  Depth IntInf | Incumbent    BestBd   Gap | It/Node Time

     0     0 176001.989    0   54 5446097.47 176001.989  96.8%     -    1s
H    0     0                    177203.96893 176001.989  0.68%     -    1s
H    0     0                    177163.82908 176001.989  0.66%     -    1s
     0     0 176001.989    0   54 177163.829 176001.989  0.66%     -    1s
     0     0 176001.989    0   49 177163.829 176001.989  0.66%     -    2s
H    0     0                    177153.23323 176001.989  0.65%     -    2s
     0     0 176006.319    0   73 177153.233 176006.319  0.65%     -    2s
H    0     0                    177116.79063 176006.319  0.63%     -    2s
     0     0 176035.089    0   80 177116.791 176035.089  0.61%     -    3s
     0     0 176079.230    0   82 177116.791 176079.230  0.59%     -    3s
     0     0 176079.230    0   99 177116.791 176079.230  0.59%     -    3s
H    0     0                    177055.59738 176079.230  0.55%     -    3s
     0     0 176079.230    0  101 177055.597 176079.230  0.55%     -    3s
     0     0 176079.230    0  103 177055.597 176079.230  0.55%     -    3s
     0     0 176079.230    0  103 177055.597 176079.230  0.55%     -    3s
H    0     0                    176829.93462 176079.230  0.42%     -    3s
H    0     0                    176829.26314 176079.230  0.42%     -    3s
     0     1 176079.230    0  103 176829.263 176079.230  0.42%     -    4s
    10     3 176145.485    6   64 176829.263 176079.230  0.42%  38.9    5s
H   19    12                    176437.14059 176079.230  0.20%  30.5    5s

Cutting planes:
  Gomory: 3
  MIR: 3
  Flow cover: 1

Explored 21 nodes (14903 simplex iterations) in 5.20 seconds (3.95 work units)
Thread count was 20 (of 80 available processors)

Solution count 10: 176437 176829 177056 ... 6.66605e+06

Optimal solution found (tolerance 3.00e-03)
Best objective 1.764371405915e+05, best bound 1.760792300999e+05, gap 0.2029%

User-callback calls 1872, time in user-callback 0.00 sec
